NAME: PointSet_Angle_55_1
TYPE: TSP
COMMENT: Points chosen discrete uniformly at random out of ${0, \ldots, 500}^2$.
DIMENSION: 55
EDGE_WEIGHT_TYPE: EUC_2D
NODE_COORD_SECTION
1 71 437
2 467 277
3 99 453
4 9 391
5 381 179
6 113 414
7 83 440
8 125 440
9 52 183
10 321 316
11 176 109
12 364 29
13 35 71
14 44 59
15 233 137
16 346 50
17 320 59
18 73 419
19 11 82
20 309 138
21 262 169
22 299 345
23 108 424
24 284 160
25 353 105
26 476 276
27 461 339
28 305 242
29 156 95
30 301 135
31 479 394
32 185 298
33 453 258
34 216 210
35 341 272
36 94 349
37 441 393
38 193 48
39 316 223
40 455 169
41 74 430
42 191 281
43 14 242
44 22 417
45 337 70
46 51 315
47 210 236
48 359 409
49 240 74
50 118 327
51 92 459
52 175 32
53 352 114
54 327 414
55 338 281
EOF
